mixintcount/benchmarks/random_v2l/3_3_100.smt2
(set-logic QF_LIA)
(set-info :ran/ran2.smt2)
(set-info :smt-lib-version 2.0)
(declare-fun x1 () Int)
(declare-fun x2 () Int)
(declare-fun x3 () Int)
(assert (<= (+ (* 2 x1) (* 6 x2) (* 10 x3) ) (- 88)))
(assert (<= (+ (* (- 1) x1) (* (- 8) x2) (* 1 x3) ) (- 86)))
(assert (<= (+ (* (- 3) x1) (* 4 x2) (* (- 3) x3) ) (- 84)))
(assert (<= (+ (* 5 x1) (* 6 x2) (* 7 x3) ) (- 32)))
(assert (<= (+ (* (- 4) x1) (* (- 3) x2) (* (- 1) x3) ) 14))
(assert (<= (+ (* (- 9) x1) (* (- 4) x2) (* (- 3) x3) ) 52))
(assert (<= (+ (* 1 x1) (* 0 x2) (* 0 x3) ) 100))
(assert (<= (+ (* (- 1) x1) (* 0 x2) (* 0 x3) ) 100))
(assert (<= (+ (* 0 x1) (* 1 x2) (* 0 x3) ) 100))
(assert (<= (+ (* 0 x1) (* (- 1) x2) (* 0 x3) ) 100))
(assert (<= (+ (* 0 x1) (* 0 x2) (* 1 x3) ) 100))
(assert (<= (+ (* 0 x1) (* 0 x2) (* (- 1) x3) ) 100))
