mixintcount/benchmarks/random_v2l/3_3_100.in
12 5
#	x1	x2	x3;		0 = Real; 1 = Integer
	1	1	1
1	2	6	10	-88
1	-1	-8	1	-86
1	-3	4	-3	-84
1	5	6	7	-32
1	-4	-3	-1	14
1	-9	-4	-3	52
1	1	0	0	100
1	-1	0	0	100
1	0	1	0	100
1	0	-1	0	100
1	0	0	1	100
1	0	0	-1	100
